(declare-const X String)
; Host\x3A\s+User-Agent\x3A.*v\x3BApofisToolbarUser
(assert (str.in_re X (re.++ (str.to_re "Host:") (re.+ (re.union (str.to_re " ") (str.to_re "\u{9}") (str.to_re "\u{a}") (str.to_re "\u{c}") (str.to_re "\u{d}"))) (str.to_re "User-Agent:") (re.* re.allchar) (str.to_re "v;ApofisToolbarUser\u{a}"))))
; /User-Agent\x3A\s+?mus[\x0d\x0a]/iH
(assert (str.in_re X (re.++ (str.to_re "/User-Agent:") (re.+ (re.union (str.to_re " ") (str.to_re "\u{9}") (str.to_re "\u{a}") (str.to_re "\u{c}") (str.to_re "\u{d}"))) (str.to_re "mus") (re.union (str.to_re "\u{d}") (str.to_re "\u{a}")) (str.to_re "/iH\u{a}"))))
; /filename=[^\n]*\x2eflac/i
(assert (str.in_re X (re.++ (str.to_re "/filename=") (re.* (re.comp (str.to_re "\u{a}"))) (str.to_re ".flac/i\u{a}"))))
; ToolbarUser-Agent\x3AFrom\x3A
(assert (str.in_re X (str.to_re "ToolbarUser-Agent:From:\u{a}")))
(check-sat)
